(set-logic QF_S)
(declare-fun var0 () String)
(assert (RegexIn var0 (RegexConcat (RegexUnion (RegexUnion (Str2Reg "00") (Str2Reg "111")) (RegexUnion (Str2Reg "222") (Str2Reg "3"))) (RegexConcat (RegexPlus (RegexPlus (Str2Reg "4"))) (RegexUnion (RegexUnion (Str2Reg "5") (Str2Reg "666")) (RegexUnion (Str2Reg "7") (Str2Reg "88")))))))
(check-sat)